p cnf 144 1
144 0
w 1 0.0374803
w 2 1 1
w 2 -1 0
w 3 2 0.244968
w 3 -2 0.268139
w 4 3 0.0645196
w 4 -3 0.6442
w 5 4 0
w 5 -4 1
w 6 5 0
w 6 -5 1
w 7 6 1
w 7 -6 0
w 8 7 1
w 8 -7 0
w 9 8 0
w 9 -8 1
w 10 9 0.907112
w 10 -9 0.724952
w 11 10 0.785653
w 11 -10 0.125111
w 12 11 0.0576259
w 12 -11 0.413727
w 13 1 1
w 13 -1 0
w 14 13 2 0
w 14 13 -2 0
w 14 -13 2 1
w 14 -13 -2 1
w 15 14 3 0
w 15 14 -3 0
w 15 -14 3 1
w 15 -14 -3 1
w 16 15 4 1
w 16 15 -4 0
w 16 -15 4 0
w 16 -15 -4 0
w 17 16 5 0.615386
w 17 16 -5 0.341076
w 17 -16 5 0.781208
w 17 -16 -5 0.175021
w 18 17 6 1
w 18 17 -6 1
w 18 -17 6 0
w 18 -17 -6 0
w 19 18 7 1
w 19 18 -7 1
w 19 -18 7 0
w 19 -18 -7 1
w 20 19 8 0.502923
w 20 19 -8 0.278305
w 20 -19 8 0.626717
w 20 -19 -8 0.166225
w 21 20 9 0
w 21 20 -9 1
w 21 -20 9 1
w 21 -20 -9 1
w 22 21 10 0.74101
w 22 21 -10 0.727573
w 22 -21 10 0.432628
w 22 -21 -10 0.549698
w 23 22 11 0
w 23 22 -11 1
w 23 -22 11 0
w 23 -22 -11 0
w 24 23 12 0
w 24 23 -12 0
w 24 -23 12 1
w 24 -23 -12 0
w 25 13 0
w 25 -13 1
w 26 25 14 0.586902
w 26 25 -14 0.186871
w 26 -25 14 0.0128204
w 26 -25 -14 0.399169
w 27 26 15 0
w 27 26 -15 0
w 27 -26 15 1
w 27 -26 -15 1
w 28 27 16 1
w 28 27 -16 0
w 28 -27 16 0
w 28 -27 -16 0
w 29 28 17 0
w 29 28 -17 0
w 29 -28 17 0
w 29 -28 -17 1
w 30 29 18 0.488581
w 30 29 -18 0.638862
w 30 -29 18 0.100401
w 30 -29 -18 0.567267
w 31 30 19 1
w 31 30 -19 0
w 31 -30 19 0
w 31 -30 -19 1
w 32 31 20 1
w 32 31 -20 1
w 32 -31 20 0
w 32 -31 -20 1
w 33 32 21 0
w 33 32 -21 1
w 33 -32 21 0
w 33 -32 -21 0
w 34 33 22 0
w 34 33 -22 1
w 34 -33 22 1
w 34 -33 -22 1
w 35 34 23 0
w 35 34 -23 1
w 35 -34 23 0
w 35 -34 -23 0
w 36 35 24 1
w 36 35 -24 0
w 36 -35 24 1
w 36 -35 -24 0
w 37 25 1
w 37 -25 0
w 38 37 26 0
w 38 37 -26 1
w 38 -37 26 1
w 38 -37 -26 1
w 39 38 27 0
w 39 38 -27 1
w 39 -38 27 0
w 39 -38 -27 0
w 40 39 28 1
w 40 39 -28 1
w 40 -39 28 0
w 40 -39 -28 1
w 41 40 29 0
w 41 40 -29 1
w 41 -40 29 0
w 41 -40 -29 0
w 42 41 30 0.146817
w 42 41 -30 0.318654
w 42 -41 30 0.591147
w 42 -41 -30 0.352738
w 43 42 31 1
w 43 42 -31 0
w 43 -42 31 0
w 43 -42 -31 1
w 44 43 32 0.201045
w 44 43 -32 0.322143
w 44 -43 32 0.720404
w 44 -43 -32 0.442381
w 45 44 33 0.467972
w 45 44 -33 0.0412888
w 45 -44 33 0.7342
w 45 -44 -33 0.484666
w 46 45 34 0
w 46 45 -34 1
w 46 -45 34 0
w 46 -45 -34 0
w 47 46 35 1
w 47 46 -35 0
w 47 -46 35 0
w 47 -46 -35 1
w 48 47 36 0
w 48 47 -36 0
w 48 -47 36 1
w 48 -47 -36 1
w 49 37 1
w 49 -37 0
w 50 49 38 0
w 50 49 -38 1
w 50 -49 38 0
w 50 -49 -38 0
w 51 50 39 0
w 51 50 -39 1
w 51 -50 39 1
w 51 -50 -39 1
w 52 51 40 0.209704
w 52 51 -40 0.73915
w 52 -51 40 0.365266
w 52 -51 -40 0.233359
w 53 52 41 0
w 53 52 -41 0
w 53 -52 41 0
w 53 -52 -41 1
w 54 53 42 0
w 54 53 -42 0
w 54 -53 42 1
w 54 -53 -42 0
w 55 54 43 0
w 55 54 -43 0
w 55 -54 43 0
w 55 -54 -43 1
w 56 55 44 0.547586
w 56 55 -44 0.222894
w 56 -55 44 0.516314
w 56 -55 -44 0.239809
w 57 56 45 0.524303
w 57 56 -45 0.652437
w 57 -56 45 0.117343
w 57 -56 -45 0.529253
w 58 57 46 0
w 58 57 -46 1
w 58 -57 46 0
w 58 -57 -46 0
w 59 58 47 0
w 59 58 -47 0
w 59 -58 47 0
w 59 -58 -47 1
w 60 59 48 0.265489
w 60 59 -48 0.205204
w 60 -59 48 0.761145
w 60 -59 -48 0.756319
w 61 49 0
w 61 -49 1
w 62 61 50 0.771982
w 62 61 -50 0.778595
w 62 -61 50 0.545253
w 62 -61 -50 0.60245
w 63 62 51 1
w 63 62 -51 0
w 63 -62 51 0
w 63 -62 -51 0
w 64 63 52 1
w 64 63 -52 1
w 64 -63 52 0
w 64 -63 -52 1
w 65 64 53 1
w 65 64 -53 0
w 65 -64 53 1
w 65 -64 -53 1
w 66 65 54 1
w 66 65 -54 1
w 66 -65 54 1
w 66 -65 -54 0
w 67 66 55 1
w 67 66 -55 1
w 67 -66 55 0
w 67 -66 -55 1
w 68 67 56 1
w 68 67 -56 1
w 68 -67 56 1
w 68 -67 -56 0
w 69 68 57 0.270725
w 69 68 -57 0.0769124
w 69 -68 57 0.998229
w 69 -68 -57 0.836715
w 70 69 58 0.641296
w 70 69 -58 0.0551421
w 70 -69 58 0.628407
w 70 -69 -58 0.813615
w 71 70 59 0.789874
w 71 70 -59 0.254337
w 71 -70 59 0.456372
w 71 -70 -59 0.511746
w 72 71 60 0
w 72 71 -60 0
w 72 -71 60 0
w 72 -71 -60 1
w 73 61 0
w 73 -61 1
w 74 73 62 0.77801
w 74 73 -62 0.0628551
w 74 -73 62 0.269654
w 74 -73 -62 0.943959
w 75 74 63 0.54667
w 75 74 -63 0.888503
w 75 -74 63 0.135132
w 75 -74 -63 0.426136
w 76 75 64 0
w 76 75 -64 1
w 76 -75 64 1
w 76 -75 -64 0
w 77 76 65 1
w 77 76 -65 1
w 77 -76 65 1
w 77 -76 -65 0
w 78 77 66 0
w 78 77 -66 0
w 78 -77 66 1
w 78 -77 -66 0
w 79 78 67 1
w 79 78 -67 0
w 79 -78 67 0
w 79 -78 -67 0
w 80 79 68 1
w 80 79 -68 1
w 80 -79 68 0
w 80 -79 -68 1
w 81 80 69 0
w 81 80 -69 1
w 81 -80 69 0
w 81 -80 -69 1
w 82 81 70 0
w 82 81 -70 0
w 82 -81 70 1
w 82 -81 -70 0
w 83 82 71 1
w 83 82 -71 1
w 83 -82 71 0
w 83 -82 -71 0
w 84 83 72 0.66106
w 84 83 -72 0.596883
w 84 -83 72 0.091728
w 84 -83 -72 0.149693
w 85 73 1
w 85 -73 0
w 86 85 74 0
w 86 85 -74 1
w 86 -85 74 0
w 86 -85 -74 1
w 87 86 75 0
w 87 86 -75 0
w 87 -86 75 1
w 87 -86 -75 0
w 88 87 76 1
w 88 87 -76 1
w 88 -87 76 0
w 88 -87 -76 1
w 89 88 77 0
w 89 88 -77 1
w 89 -88 77 1
w 89 -88 -77 0
w 90 89 78 0
w 90 89 -78 0
w 90 -89 78 0
w 90 -89 -78 1
w 91 90 79 0.412003
w 91 90 -79 0.643914
w 91 -90 79 0.013291
w 91 -90 -79 0.0969999
w 92 91 80 0.51861
w 92 91 -80 0.45457
w 92 -91 80 0.612911
w 92 -91 -80 0.144176
w 93 92 81 0
w 93 92 -81 1
w 93 -92 81 0
w 93 -92 -81 0
w 94 93 82 0.75508
w 94 93 -82 0.426428
w 94 -93 82 0.879182
w 94 -93 -82 0.0707931
w 95 94 83 1
w 95 94 -83 0
w 95 -94 83 1
w 95 -94 -83 1
w 96 95 84 0
w 96 95 -84 0
w 96 -95 84 1
w 96 -95 -84 1
w 97 85 0
w 97 -85 1
w 98 97 86 0
w 98 97 -86 0
w 98 -97 86 1
w 98 -97 -86 1
w 99 98 87 0.926962
w 99 98 -87 0.843176
w 99 -98 87 0.184289
w 99 -98 -87 0.626689
w 100 99 88 1
w 100 99 -88 0
w 100 -99 88 1
w 100 -99 -88 0
w 101 100 89 1
w 101 100 -89 1
w 101 -100 89 0
w 101 -100 -89 1
w 102 101 90 1
w 102 101 -90 1
w 102 -101 90 0
w 102 -101 -90 0
w 103 102 91 0
w 103 102 -91 1
w 103 -102 91 0
w 103 -102 -91 1
w 104 103 92 0.808338
w 104 103 -92 0.477427
w 104 -103 92 0.414402
w 104 -103 -92 0.122389
w 105 104 93 1
w 105 104 -93 0
w 105 -104 93 0
w 105 -104 -93 0
w 106 105 94 0
w 106 105 -94 1
w 106 -105 94 0
w 106 -105 -94 1
w 107 106 95 0.755309
w 107 106 -95 0.677856
w 107 -106 95 0.250896
w 107 -106 -95 0.243277
w 108 107 96 1
w 108 107 -96 1
w 108 -107 96 1
w 108 -107 -96 0
w 109 97 1
w 109 -97 0
w 110 109 98 0.463223
w 110 109 -98 0.229786
w 110 -109 98 0.864058
w 110 -109 -98 0.271561
w 111 110 99 0
w 111 110 -99 0
w 111 -110 99 1
w 111 -110 -99 1
w 112 111 100 0
w 112 111 -100 1
w 112 -111 100 0
w 112 -111 -100 0
w 113 112 101 0
w 113 112 -101 1
w 113 -112 101 0
w 113 -112 -101 0
w 114 113 102 0
w 114 113 -102 1
w 114 -113 102 1
w 114 -113 -102 1
w 115 114 103 0.105566
w 115 114 -103 0.515124
w 115 -114 103 0.806833
w 115 -114 -103 0.0383144
w 116 115 104 1
w 116 115 -104 0
w 116 -115 104 0
w 116 -115 -104 0
w 117 116 105 0
w 117 116 -105 0
w 117 -116 105 1
w 117 -116 -105 1
w 118 117 106 0.323403
w 118 117 -106 0.498207
w 118 -117 106 0.687862
w 118 -117 -106 0.628053
w 119 118 107 0.750454
w 119 118 -107 0.703541
w 119 -118 107 0.168462
w 119 -118 -107 0.490902
w 120 119 108 0
w 120 119 -108 1
w 120 -119 108 1
w 120 -119 -108 1
w 121 109 0.438248
w 121 -109 0.315528
w 122 121 110 1
w 122 121 -110 1
w 122 -121 110 0
w 122 -121 -110 1
w 123 122 111 1
w 123 122 -111 0
w 123 -122 111 0
w 123 -122 -111 1
w 124 123 112 0.697814
w 124 123 -112 0.341125
w 124 -123 112 0.129554
w 124 -123 -112 0.196021
w 125 124 113 1
w 125 124 -113 0
w 125 -124 113 0
w 125 -124 -113 0
w 126 125 114 0
w 126 125 -114 0
w 126 -125 114 0
w 126 -125 -114 1
w 127 126 115 0.745089
w 127 126 -115 0.0135977
w 127 -126 115 0.262005
w 127 -126 -115 0.0606168
w 128 127 116 1
w 128 127 -116 0
w 128 -127 116 0
w 128 -127 -116 0
w 129 128 117 0.810446
w 129 128 -117 0.203206
w 129 -128 117 0.468488
w 129 -128 -117 0.129393
w 130 129 118 0.274639
w 130 129 -118 0.827207
w 130 -129 118 0.12326
w 130 -129 -118 0.404194
w 131 130 119 1
w 131 130 -119 0
w 131 -130 119 1
w 131 -130 -119 1
w 132 131 120 0
w 132 131 -120 1
w 132 -131 120 1
w 132 -131 -120 0
w 133 121 0
w 133 -121 1
w 134 133 122 1
w 134 133 -122 0
w 134 -133 122 0
w 134 -133 -122 0
w 135 134 123 0.0534017
w 135 134 -123 0.476721
w 135 -134 123 0.421583
w 135 -134 -123 0.904459
w 136 135 124 0
w 136 135 -124 1
w 136 -135 124 1
w 136 -135 -124 0
w 137 136 125 1
w 137 136 -125 1
w 137 -136 125 0
w 137 -136 -125 0
w 138 137 126 1
w 138 137 -126 0
w 138 -137 126 1
w 138 -137 -126 0
w 139 138 127 0.816145
w 139 138 -127 0.950553
w 139 -138 127 0.37679
w 139 -138 -127 0.266898
w 140 139 128 0.561654
w 140 139 -128 0.731249
w 140 -139 128 0.088117
w 140 -139 -128 0.807135
w 141 140 129 0.0264691
w 141 140 -129 0.860537
w 141 -140 129 0.257625
w 141 -140 -129 0.448052
w 142 141 130 0.544792
w 142 141 -130 0.0728411
w 142 -141 130 0.137944
w 142 -141 -130 0.961351
w 143 142 131 0
w 143 142 -131 1
w 143 -142 131 1
w 143 -142 -131 1
w 144 143 132 1
w 144 143 -132 0
w 144 -143 132 1
w 144 -143 -132 1